Data path: /scratch/opt/lxu/CFLG/benchmarks/random_A
Instance: r_10_0.1_12.txt
Result path: /scratch/opt/lxu/CFLG/results/random_A
Solver: Gurobi
Time limit: 7200
Formulation: LEFPAI
Cover: Large
julia --project=. src/main.jl /scratch/opt/lxu/CFLG/benchmarks/random_A r_10_0.1_12.txt /scratch/opt/lxu/CFLG/results/random_A Gurobi 7200 LEFPAI Large
The latest version of Julia in the `release` channel is 1.11.5+0.x64.linux.gnu. You currently have `1.11.4+0.x64.linux.gnu` installed. Run:

  juliaup update

in your terminal shell to install Julia 1.11.5+0.x64.linux.gnu and update the `release` channel to that version.
/scratch/opt/lxu/CFLG/benchmarks/random_A Gurobi 7200.0 /scratch/opt/lxu/CFLG/results/random_A r_10_0.1_12.txt LEFPAI Large
/scratch/opt/lxu/CFLG/benchmarks/random_A/r_10_0.1_12.txt

 read graph
data loaded

problem_graph/original graph: node: 10/10 edge: 12/12 dlt: 1.3664679164480846 break_avg_len: 0.6832339582240423 break_max_len: 0.9551886407953641Vbar/V, Ebar/E(7, 10, 9, 12)
(1, 6)(1, 7)(1, 10)(4, 6)(4, 8)(4, 10)(7, 8)(7, 9)(8, 9)(Dict(4 => 0.0, 6 => 0.0), [4, 6], 9, 11)Set parameter TokenServer to value "solice01.zib.de"
Set parameter Threads to value 1
Set parameter OutputFlag to value 1
Gurobi Optimizer version 12.0.1 build v12.0.1rc0 (linux64 - "Debian GNU/Linux 12 (bookworm)")

CPU model: Intel(R) Xeon(R) Gold 5122 CPU @ 3.60GHz, instruction set [SSE2|AVX|AVX2|AVX512]
Thread count: 8 physical cores, 16 logical processors, using up to 1 threads

Non-default parameters:
Threads  1

Optimize a model with 20 rows, 33 columns and 55 nonzeros
Model fingerprint: 0x6a43c35c
Coefficient statistics:
  Matrix range     [1e+00, 1e+00]
  Objective range  [1e+00, 1e+00]
  Bounds range     [1e+00, 1e+00]
  RHS range        [1e+00, 1e+00]
Presolve removed 20 rows and 33 columns
Presolve time: 0.02s
Presolve: All rows and columns removed
Iteration    Objective       Primal Inf.    Dual Inf.      Time
       0    2.0000000e+00   0.000000e+00   0.000000e+00      0s

Solved in 0 iterations and 0.02 seconds (0.00 work units)
Optimal objective  2.000000000e+00

User-callback calls 35, time in user-callback 0.00 sec
elapsed CPU time: 1.72855 seconds
Set parameter TokenServer to value "solice01.zib.de"
Set parameter Threads to value 1
Set parameter OutputFlag to value 1
Set parameter MIPGap to value 0.0001
Set parameter MIPGapAbs to value 0.999998
Set parameter TimeLimit to value 7198.27145

 more cuts: false 1.3664679164480846 false
is_attach:trueformulation:LEFPAI0 11 0

 model loaded

Gurobi Optimizer version 12.0.1 build v12.0.1rc0 (linux64 - "Debian GNU/Linux 12 (bookworm)")

CPU model: Intel(R) Xeon(R) Gold 5122 CPU @ 3.60GHz, instruction set [SSE2|AVX|AVX2|AVX512]
Thread count: 8 physical cores, 16 logical processors, using up to 1 threads

Non-default parameters:
TimeLimit  7198.27145
MIPGapAbs  0.999998
Threads  1

Optimize a model with 193 rows, 197 columns and 518 nonzeros
Model fingerprint: 0x3a717d71
Model has 135 simple general constraints
  135 INDICATOR
Variable types: 31 continuous, 166 integer (166 binary)
Coefficient statistics:
  Matrix range     [4e-01, 1e+00]
  Objective range  [1e+00, 1e+00]
  Bounds range     [4e-01, 1e+00]
  RHS range        [1e-06, 1e+00]
  GenCon rhs range [8e-03, 1e+00]
  GenCon coe range [1e+00, 1e+00]
Presolve removed 4 rows and 87 columns
Presolve time: 0.01s
Presolved: 189 rows, 110 columns, 934 nonzeros
Variable types: 17 continuous, 93 integer (93 binary)
Found heuristic solution: objective 9.0000000
Found heuristic solution: objective 8.0000000
Found heuristic solution: objective 6.0000000
Found heuristic solution: objective 5.0000000

Root relaxation: objective 1.000000e+00, 107 iterations, 0.00 seconds (0.00 work units)

    Nodes    |    Current Node    |     Objective Bounds      |     Work
 Expl Unexpl |  Obj  Depth IntInf | Incumbent    BestBd   Gap | It/Node Time

     0     0    1.00000    0   23    5.00000    1.00000  80.0%     -    0s
H    0     0                       3.0000000    1.00000  66.7%     -    0s
     0     0    1.12733    0   38    3.00000    1.12733  62.4%     -    0s
     0     0    1.25000    0   39    3.00000    1.25000  58.3%     -    0s
     0     0    1.50000    0   36    3.00000    1.50000  50.0%     -    0s
     0     0    1.50000    0   34    3.00000    1.50000  50.0%     -    0s
H    0     0                       2.0000000    2.00000  0.00%     -    0s
     0     0    2.00000    0   34    2.00000    2.00000  0.00%     -    0s

Cutting planes:
  Cover: 2
  Implied bound: 1
  MIR: 1
  Flow cover: 1
  RLT: 7

Explored 1 nodes (279 simplex iterations) in 0.04 seconds (0.02 work units)
Thread count was 1 (of 16 available processors)

Solution count 6: 2 3 5 ... 9

Optimal solution found (tolerance 1.00e-04)
Best objective 2.000000000000e+00, best bound 2.000000000000e+00, gap 0.0000%

User-callback calls 743, time in user-callback 0.00 sec

 sepatime0 0 0
2.0Stat(MathOptInterface.OPTIMAL, 2.0, 2.0, 0.0, 0.0, 1.72855, 0.03684401512145996, 1, Main.CFLG.LEFPAI, "", #undef)
